c File: data_files/evolved_graphs/g0323.col
c
c Auto generated graph
c
p edge 100 1124
e 1 5
e 1 7
e 1 8
e 1 18
e 1 19
e 1 21
e 1 24
e 1 27
e 1 43
e 1 49
e 1 53
e 1 59
e 1 63
e 1 66
e 1 69
e 1 71
e 1 73
e 1 84
e 1 97
e 2 9
e 2 11
e 2 18
e 2 40
e 2 50
e 2 51
e 2 54
e 2 55
e 2 58
e 2 61
e 2 64
e 2 66
e 2 75
e 2 89
e 2 90
e 2 91
e 2 92
e 2 93
e 2 96
e 2 98
e 2 99
e 2 100
e 3 9
e 3 16
e 3 23
e 3 31
e 3 47
e 3 54
e 3 58
e 3 62
e 3 66
e 3 68
e 3 72
e 3 73
e 3 76
e 3 86
e 3 88
e 3 97
e 3 98
e 3 100
e 4 5
e 4 7
e 4 9
e 4 15
e 4 20
e 4 25
e 4 33
e 4 40
e 4 41
e 4 43
e 4 45
e 4 46
e 4 53
e 4 62
e 4 64
e 4 66
e 4 67
e 4 75
e 4 77
e 4 83
e 4 84
e 4 86
e 4 87
e 4 89
e 4 96
e 4 97
e 5 9
e 5 11
e 5 13
e 5 15
e 5 22
e 5 27
e 5 29
e 5 40
e 5 45
e 5 49
e 5 55
e 5 56
e 5 59
e 5 61
e 5 64
e 5 77
e 5 81
e 5 83
e 5 88
e 5 89
e 5 90
e 5 96
e 6 8
e 6 9
e 6 11
e 6 15
e 6 19
e 6 22
e 6 25
e 6 48
e 6 50
e 6 51
e 6 60
e 6 61
e 6 72
e 6 73
e 6 76
e 6 85
e 6 87
e 6 88
e 6 91
e 6 98
e 6 100
e 7 10
e 7 14
e 7 18
e 7 24
e 7 26
e 7 28
e 7 41
e 7 46
e 7 48
e 7 56
e 7 64
e 7 65
e 7 68
e 7 72
e 7 88
e 7 91
e 7 92
e 7 96
e 7 97
e 7 98
e 7 99
e 7 100
e 8 9
e 8 14
e 8 20
e 8 22
e 8 28
e 8 31
e 8 32
e 8 33
e 8 34
e 8 43
e 8 45
e 8 58
e 8 70
e 8 76
e 8 77
e 8 80
e 8 82
e 8 84
e 8 87
e 8 93
e 8 94
e 8 95
e 8 97
e 8 98
e 8 99
e 8 100
e 9 12
e 9 13
e 9 38
e 9 41
e 9 48
e 9 53
e 9 59
e 9 61
e 9 64
e 9 66
e 9 68
e 9 71
e 9 74
e 9 76
e 9 82
e 9 83
e 9 84
e 9 87
e 9 90
e 9 92
e 9 94
e 9 97
e 9 98
e 9 100
e 10 12
e 10 13
e 10 19
e 10 24
e 10 38
e 10 45
e 10 50
e 10 58
e 10 63
e 10 70
e 10 73
e 10 77
e 10 78
e 10 79
e 10 80
e 10 91
e 10 93
e 10 97
e 11 20
e 11 36
e 11 38
e 11 45
e 11 49
e 11 52
e 11 55
e 11 57
e 11 60
e 11 69
e 11 81
e 11 82
e 11 89
e 11 90
e 11 92
e 11 97
e 11 100
e 12 15
e 12 17
e 12 18
e 12 24
e 12 28
e 12 43
e 12 45
e 12 46
e 12 47
e 12 49
e 12 56
e 12 61
e 12 66
e 12 68
e 12 72
e 12 87
e 12 97
e 13 15
e 13 33
e 13 35
e 13 40
e 13 44
e 13 48
e 13 58
e 13 65
e 13 69
e 13 76
e 13 81
e 13 83
e 13 87
e 13 95
e 13 96
e 13 99
e 14 16
e 14 29
e 14 31
e 14 32
e 14 35
e 14 45
e 14 50
e 14 52
e 14 53
e 14 78
e 14 86
e 14 94
e 14 97
e 14 98
e 14 99
e 15 19
e 15 27
e 15 32
e 15 33
e 15 35
e 15 36
e 15 40
e 15 41
e 15 44
e 15 46
e 15 48
e 15 50
e 15 55
e 15 56
e 15 69
e 15 71
e 15 73
e 15 89
e 15 90
e 15 92
e 15 100
e 16 17
e 16 19
e 16 29
e 16 34
e 16 37
e 16 38
e 16 44
e 16 45
e 16 46
e 16 52
e 16 54
e 16 65
e 16 68
e 16 70
e 16 71
e 16 72
e 16 82
e 16 92
e 16 97
e 16 99
e 16 100
e 17 18
e 17 25
e 17 26
e 17 40
e 17 44
e 17 48
e 17 52
e 17 53
e 17 57
e 17 59
e 17 73
e 17 82
e 17 90
e 17 94
e 17 97
e 17 99
e 18 30
e 18 36
e 18 37
e 18 39
e 18 53
e 18 54
e 18 70
e 18 82
e 18 83
e 18 87
e 18 88
e 18 90
e 18 98
e 19 20
e 19 25
e 19 37
e 19 66
e 19 68
e 19 74
e 19 88
e 19 95
e 19 96
e 19 99
e 20 21
e 20 31
e 20 36
e 20 42
e 20 43
e 20 44
e 20 47
e 20 48
e 20 53
e 20 55
e 20 64
e 20 66
e 20 72
e 20 75
e 20 78
e 20 80
e 20 81
e 20 84
e 20 92
e 20 96
e 20 97
e 21 22
e 21 24
e 21 26
e 21 27
e 21 31
e 21 34
e 21 44
e 21 56
e 21 59
e 21 72
e 21 76
e 21 80
e 21 81
e 21 88
e 21 99
e 22 24
e 22 26
e 22 28
e 22 32
e 22 34
e 22 35
e 22 38
e 22 43
e 22 44
e 22 46
e 22 47
e 22 50
e 22 68
e 22 77
e 22 78
e 22 80
e 22 87
e 22 88
e 22 90
e 22 96
e 22 99
e 23 28
e 23 35
e 23 41
e 23 58
e 23 60
e 23 66
e 23 86
e 23 87
e 23 89
e 23 91
e 23 92
e 23 97
e 23 98
e 23 99
e 23 100
e 24 28
e 24 39
e 24 40
e 24 42
e 24 63
e 24 66
e 24 67
e 24 69
e 24 73
e 24 82
e 24 84
e 24 88
e 24 92
e 24 95
e 24 96
e 24 99
e 24 100
e 25 34
e 25 36
e 25 38
e 25 68
e 25 78
e 25 79
e 25 93
e 25 96
e 25 98
e 25 99
e 26 33
e 26 34
e 26 38
e 26 39
e 26 40
e 26 45
e 26 48
e 26 50
e 26 52
e 26 60
e 26 61
e 26 69
e 26 71
e 26 75
e 26 77
e 26 79
e 26 82
e 26 88
e 26 92
e 26 96
e 26 98
e 27 28
e 27 34
e 27 37
e 27 41
e 27 44
e 27 46
e 27 47
e 27 56
e 27 66
e 27 73
e 27 76
e 27 77
e 27 79
e 27 83
e 27 86
e 27 91
e 27 97
e 27 98
e 27 99
e 27 100
e 28 31
e 28 40
e 28 46
e 28 56
e 28 62
e 28 66
e 28 68
e 28 82
e 28 83
e 28 89
e 28 91
e 28 92
e 28 98
e 28 99
e 28 100
e 29 31
e 29 33
e 29 34
e 29 36
e 29 45
e 29 46
e 29 47
e 29 59
e 29 82
e 29 94
e 29 95
e 29 97
e 29 99
e 30 31
e 30 34
e 30 41
e 30 44
e 30 46
e 30 47
e 30 48
e 30 53
e 30 57
e 30 61
e 30 68
e 30 70
e 30 75
e 30 76
e 30 78
e 30 81
e 30 84
e 30 90
e 30 93
e 30 96
e 30 97
e 30 99
e 31 32
e 31 35
e 31 39
e 31 40
e 31 60
e 31 67
e 31 74
e 31 80
e 31 83
e 31 85
e 31 89
e 31 92
e 31 98
e 31 99
e 32 35
e 32 42
e 32 44
e 32 45
e 32 54
e 32 55
e 32 56
e 32 67
e 32 74
e 32 85
e 32 96
e 32 97
e 32 99
e 33 36
e 33 39
e 33 43
e 33 46
e 33 56
e 33 59
e 33 66
e 33 73
e 33 75
e 33 76
e 33 78
e 33 89
e 33 94
e 33 98
e 34 36
e 34 43
e 34 60
e 34 62
e 34 69
e 34 74
e 34 77
e 34 80
e 34 82
e 34 88
e 34 91
e 34 96
e 34 97
e 34 98
e 34 100
e 35 37
e 35 40
e 35 41
e 35 46
e 35 51
e 35 54
e 35 59
e 35 66
e 35 69
e 35 80
e 35 86
e 35 89
e 35 96
e 35 100
e 36 37
e 36 38
e 36 46
e 36 50
e 36 52
e 36 62
e 36 64
e 36 78
e 36 86
e 36 94
e 36 96
e 36 97
e 36 98
e 36 99
e 37 51
e 37 61
e 37 64
e 37 85
e 37 97
e 37 98
e 37 99
e 38 40
e 38 50
e 38 55
e 38 56
e 38 62
e 38 64
e 38 66
e 38 70
e 38 74
e 38 79
e 38 81
e 38 88
e 38 96
e 38 97
e 38 98
e 38 99
e 39 48
e 39 66
e 39 77
e 39 80
e 39 85
e 39 92
e 39 94
e 39 96
e 39 99
e 39 100
e 40 43
e 40 45
e 40 46
e 40 60
e 40 62
e 40 65
e 40 78
e 40 88
e 40 98
e 40 99
e 40 100
e 41 43
e 41 44
e 41 51
e 41 52
e 41 65
e 41 76
e 41 85
e 41 92
e 41 98
e 41 100
e 42 46
e 42 48
e 42 56
e 42 62
e 42 72
e 42 74
e 42 79
e 42 81
e 42 83
e 42 94
e 42 95
e 42 97
e 42 100
e 43 46
e 43 49
e 43 50
e 43 71
e 43 72
e 43 74
e 43 78
e 43 82
e 43 83
e 43 91
e 43 96
e 43 98
e 44 48
e 44 50
e 44 52
e 44 56
e 44 67
e 44 78
e 44 97
e 45 46
e 45 52
e 45 56
e 45 58
e 45 67
e 45 78
e 45 79
e 45 82
e 45 88
e 45 96
e 46 50
e 46 51
e 46 54
e 46 64
e 46 66
e 46 68
e 46 73
e 46 75
e 46 77
e 46 80
e 46 85
e 46 87
e 46 91
e 46 92
e 46 95
e 46 96
e 46 97
e 46 98
e 46 99
e 47 53
e 47 65
e 47 78
e 47 80
e 47 83
e 47 90
e 47 98
e 47 100
e 48 52
e 48 57
e 48 64
e 48 69
e 48 75
e 48 78
e 48 79
e 48 83
e 48 93
e 48 95
e 48 96
e 48 97
e 49 51
e 49 53
e 49 56
e 49 61
e 49 63
e 49 68
e 49 69
e 49 70
e 49 72
e 49 76
e 49 79
e 49 84
e 49 86
e 49 89
e 49 90
e 49 91
e 49 97
e 49 98
e 50 56
e 50 67
e 50 68
e 50 72
e 50 77
e 50 84
e 50 88
e 50 95
e 51 64
e 51 65
e 51 66
e 51 74
e 51 77
e 51 81
e 51 86
e 51 88
e 51 90
e 52 60
e 52 71
e 52 79
e 52 83
e 52 90
e 52 94
e 52 95
e 52 96
e 52 100
e 53 56
e 53 58
e 53 60
e 53 67
e 53 72
e 53 74
e 53 75
e 53 77
e 53 86
e 53 97
e 53 98
e 53 99
e 54 56
e 54 60
e 54 62
e 54 64
e 54 66
e 54 70
e 54 80
e 54 85
e 54 86
e 55 57
e 55 63
e 55 68
e 55 82
e 55 83
e 55 85
e 55 90
e 55 96
e 55 99
e 55 100
e 56 58
e 56 60
e 56 62
e 56 64
e 56 69
e 56 78
e 56 84
e 56 88
e 56 89
e 56 92
e 56 94
e 56 96
e 56 97
e 56 98
e 56 100
e 57 62
e 57 66
e 57 68
e 57 74
e 57 77
e 57 80
e 57 81
e 57 82
e 57 88
e 57 91
e 57 95
e 57 96
e 57 99
e 57 100
e 58 59
e 58 66
e 58 81
e 58 84
e 58 85
e 58 87
e 58 95
e 58 97
e 58 98
e 58 99
e 58 100
e 59 65
e 59 76
e 59 78
e 59 81
e 59 82
e 59 89
e 59 93
e 59 94
e 59 96
e 59 97
e 59 99
e 60 63
e 60 70
e 60 73
e 60 77
e 60 78
e 60 79
e 60 83
e 60 88
e 60 89
e 60 97
e 60 99
e 60 100
e 61 73
e 61 79
e 61 80
e 61 81
e 61 89
e 61 90
e 61 95
e 61 97
e 61 99
e 62 66
e 62 68
e 62 85
e 62 86
e 62 94
e 62 96
e 62 99
e 63 65
e 63 71
e 63 72
e 63 73
e 63 75
e 63 81
e 63 85
e 63 90
e 63 94
e 63 99
e 63 100
e 64 65
e 64 70
e 64 72
e 64 75
e 64 81
e 64 83
e 64 96
e 64 98
e 65 67
e 65 74
e 65 76
e 65 82
e 65 83
e 65 88
e 65 94
e 65 99
e 65 100
e 66 75
e 66 77
e 66 80
e 66 84
e 66 89
e 66 90
e 66 95
e 66 98
e 66 100
e 67 69
e 67 71
e 67 72
e 67 77
e 67 88
e 67 94
e 67 95
e 67 98
e 68 69
e 68 74
e 68 82
e 68 83
e 68 85
e 68 88
e 68 90
e 68 97
e 68 99
e 68 100
e 69 71
e 69 76
e 69 78
e 69 81
e 69 94
e 69 97
e 69 99
e 70 72
e 70 79
e 70 81
e 70 87
e 70 88
e 70 100
e 71 72
e 71 78
e 71 85
e 71 86
e 71 91
e 71 95
e 71 98
e 71 99
e 72 73
e 72 76
e 72 79
e 72 93
e 72 98
e 72 99
e 73 75
e 73 80
e 73 85
e 73 86
e 73 89
e 73 90
e 73 91
e 73 93
e 73 95
e 74 75
e 74 76
e 74 77
e 74 80
e 74 82
e 74 91
e 74 92
e 74 95
e 74 96
e 74 97
e 74 98
e 74 99
e 74 100
e 75 77
e 75 90
e 75 93
e 75 94
e 75 99
e 76 80
e 76 83
e 76 91
e 76 99
e 76 100
e 77 80
e 77 84
e 77 94
e 77 97
e 77 98
e 77 99
e 78 80
e 78 83
e 78 84
e 78 85
e 78 88
e 78 94
e 78 100
e 79 86
e 79 87
e 79 94
e 79 96
e 79 98
e 79 99
e 80 81
e 80 85
e 80 86
e 80 87
e 80 89
e 80 93
e 80 98
e 80 99
e 80 100
e 81 82
e 82 85
e 82 97
e 82 98
e 82 100
e 83 84
e 83 88
e 83 97
e 83 98
e 84 85
e 84 95
e 84 96
e 84 98
e 85 89
e 85 96
e 85 98
e 86 91
e 86 95
e 86 96
e 86 98
e 86 100
e 87 90
e 87 91
e 87 96
e 87 98
e 87 99
e 87 100
e 88 92
e 88 93
e 88 97
e 88 98
e 88 99
e 89 96
e 89 97
e 89 100
e 90 91
e 90 94
e 90 95
e 90 96
e 90 99
e 91 93
e 91 97
e 91 99
e 92 96
e 92 99
e 92 100
e 93 96
e 93 97
e 93 100
e 94 96
e 94 99
e 95 99
e 95 100
e 97 100
e 98 99
